Route #1: 35 42 45 5 54 10
Route #2: 32 9 51 12 43 56 50
Route #3: 25 46 34 23 58 47 41
Route #4: 31 53 30 21 4 11 3
Route #5: 6 44 49 36 1 2 28 40
Route #6: 24 48 22 20 16
Route #7: 38 59 52 14 18
Route #8: 55 39 15 26 17 27 13
Route #9: 33 7 29 37 57 8 19
cost 1502.6175537109375